tsp_instances/TSP20/instance122.tsp
NODE_COORD_SECTION
0 176 64
1 120 183
2 85 181
3 116 19
4 177 95
5 162 68
6 152 164
7 46 100
8 35 175
9 28 163
10 73 198
11 113 123
12 154 47
13 90 137
14 23 103
15 24 64
16 144 79
17 197 125
18 133 103
19 64 140
