tsp_instances/TSP20/instance122.opt.tour
TOUR_SECTION
1
5
18
7
2
3
11
9
10
15
16
8
20
14
12
19
17
4
13
6
-1